NAME: X129-FSMFD
COMMENT: Generated by Uchoa, Pecin, Pessoa, Poggi, Subramanian, and Vidal (2013). Modified by Sadykov, Pessoa and Uchoa (2017). Converted to PyVRP's VRPLIB dialect.
TYPE: HFVRP
DIMENSION: 129
VEHICLES: 1152
EDGE_WEIGHT_TYPE: EUC_2D
NODE_COORD_SECTION
1	0	0
2	51	570
3	691	985
4	66	119
5	502	415
6	434	289
7	427	584
8	342	576
9	790	87
10	312	475
11	908	531
12	840	566
13	863	232
14	284	833
15	515	175
16	9	243
17	768	209
18	777	582
19	84	508
20	380	523
21	255	267
22	544	961
23	408	661
24	57	588
25	278	44
26	168	722
27	726	406
28	223	385
29	495	70
30	560	632
31	235	655
32	643	127
33	765	267
34	459	976
35	585	962
36	154	796
37	650	444
38	931	52
39	377	19
40	178	633
41	917	803
42	871	677
43	667	164
44	208	651
45	35	437
46	503	680
47	462	870
48	322	123
49	677	829
50	878	407
51	223	251
52	671	94
53	218	351
54	375	220
55	367	567
56	986	869
57	236	769
58	202	998
59	761	712
60	75	520
61	14	737
62	895	632
63	224	725
64	328	387
65	36	300
66	817	531
67	31	283
68	209	574
69	490	395
70	659	121
71	410	207
72	761	450
73	768	348
74	873	349
75	439	179
76	51	269
77	886	558
78	151	752
79	208	186
80	897	547
81	469	396
82	607	437
83	202	433
84	642	100
85	180	703
86	873	595
87	103	184
88	466	416
89	124	311
90	71	321
91	8	357
92	51	200
93	899	471
94	67	236
95	482	432
96	991	388
97	933	309
98	649	131
99	497	404
100	626	195
101	807	375
102	776	626
103	624	275
104	55	288
105	877	515
106	821	533
107	456	317
108	625	410
109	783	403
110	662	97
111	733	533
112	499	470
113	766	340
114	206	385
115	822	285
116	571	304
117	934	461
118	533	242
119	442	24
120	303	249
121	675	92
122	467	432
123	575	338
124	385	239
125	272	512
126	567	124
127	738	447
128	379	165
129	610	408
DEMAND_SECTION
1	0
2	9
3	8
4	8
5	4
6	4
7	3
8	6
9	10
10	8
11	8
12	3
13	2
14	8
15	4
16	9
17	4
18	6
19	5
20	1
21	2
22	2
23	4
24	2
25	3
26	6
27	7
28	8
29	9
30	8
31	7
32	9
33	5
34	4
35	8
36	2
37	8
38	8
39	9
40	10
41	9
42	5
43	1
44	3
45	10
46	10
47	2
48	10
49	4
50	6
51	7
52	3
53	7
54	3
55	3
56	6
57	5
58	4
59	1
60	6
61	10
62	3
63	5
64	3
65	1
66	9
67	2
68	8
69	9
70	2
71	4
72	7
73	10
74	7
75	1
76	7
77	1
78	5
79	4
80	1
81	5
82	10
83	10
84	2
85	4
86	2
87	2
88	2
89	6
90	7
91	6
92	8
93	3
94	1
95	2
96	1
97	9
98	1
99	6
100	5
101	6
102	1
103	1
104	3
105	7
106	2
107	4
108	4
109	4
110	6
111	2
112	9
113	9
114	5
115	1
116	9
117	1
118	10
119	4
120	4
121	10
122	1
123	6
124	2
125	9
126	7
127	1
128	7
129	3
CAPACITY_SECTION
1	18
2	18
3	18
4	18
5	18
6	18
7	18
8	18
9	18
10	18
11	18
12	18
13	18
14	18
15	18
16	18
17	18
18	18
19	18
20	18
21	18
22	18
23	18
24	18
25	18
26	18
27	18
28	18
29	18
30	18
31	18
32	18
33	18
34	18
35	18
36	18
37	18
38	18
39	18
40	18
41	18
42	18
43	18
44	18
45	18
46	18
47	18
48	18
49	18
50	18
51	18
52	18
53	18
54	18
55	18
56	18
57	18
58	18
59	18
60	18
61	18
62	18
63	18
64	18
65	18
66	18
67	18
68	18
69	18
70	18
71	18
72	18
73	18
74	18
75	18
76	18
77	18
78	18
79	18
80	18
81	18
82	18
83	18
84	18
85	18
86	18
87	18
88	18
89	18
90	18
91	18
92	18
93	18
94	18
95	18
96	18
97	18
98	18
99	18
100	18
101	18
102	18
103	18
104	18
105	18
106	18
107	18
108	18
109	18
110	18
111	18
112	18
113	18
114	18
115	18
116	18
117	18
118	18
119	18
120	18
121	18
122	18
123	18
124	18
125	18
126	18
127	18
128	18
129	21
130	21
131	21
132	21
133	21
134	21
135	21
136	21
137	21
138	21
139	21
140	21
141	21
142	21
143	21
144	21
145	21
146	21
147	21
148	21
149	21
150	21
151	21
152	21
153	21
154	21
155	21
156	21
157	21
158	21
159	21
160	21
161	21
162	21
163	21
164	21
165	21
166	21
167	21
168	21
169	21
170	21
171	21
172	21
173	21
174	21
175	21
176	21
177	21
178	21
179	21
180	21
181	21
182	21
183	21
184	21
185	21
186	21
187	21
188	21
189	21
190	21
191	21
192	21
193	21
194	21
195	21
196	21
197	21
198	21
199	21
200	21
201	21
202	21
203	21
204	21
205	21
206	21
207	21
208	21
209	21
210	21
211	21
212	21
213	21
214	21
215	21
216	21
217	21
218	21
219	21
220	21
221	21
222	21
223	21
224	21
225	21
226	21
227	21
228	21
229	21
230	21
231	21
232	21
233	21
234	21
235	21
236	21
237	21
238	21
239	21
240	21
241	21
242	21
243	21
244	21
245	21
246	21
247	21
248	21
249	21
250	21
251	21
252	21
253	21
254	21
255	21
256	21
257	25
258	25
259	25
260	25
261	25
262	25
263	25
264	25
265	25
266	25
267	25
268	25
269	25
270	25
271	25
272	25
273	25
274	25
275	25
276	25
277	25
278	25
279	25
280	25
281	25
282	25
283	25
284	25
285	25
286	25
287	25
288	25
289	25
290	25
291	25
292	25
293	25
294	25
295	25
296	25
297	25
298	25
299	25
300	25
301	25
302	25
303	25
304	25
305	25
306	25
307	25
308	25
309	25
310	25
311	25
312	25
313	25
314	25
315	25
316	25
317	25
318	25
319	25
320	25
321	25
322	25
323	25
324	25
325	25
326	25
327	25
328	25
329	25
330	25
331	25
332	25
333	25
334	25
335	25
336	25
337	25
338	25
339	25
340	25
341	25
342	25
343	25
344	25
345	25
346	25
347	25
348	25
349	25
350	25
351	25
352	25
353	25
354	25
355	25
356	25
357	25
358	25
359	25
360	25
361	25
362	25
363	25
364	25
365	25
366	25
367	25
368	25
369	25
370	25
371	25
372	25
373	25
374	25
375	25
376	25
377	25
378	25
379	25
380	25
381	25
382	25
383	25
384	25
385	30
386	30
387	30
388	30
389	30
390	30
391	30
392	30
393	30
394	30
395	30
396	30
397	30
398	30
399	30
400	30
401	30
402	30
403	30
404	30
405	30
406	30
407	30
408	30
409	30
410	30
411	30
412	30
413	30
414	30
415	30
416	30
417	30
418	30
419	30
420	30
421	30
422	30
423	30
424	30
425	30
426	30
427	30
428	30
429	30
430	30
431	30
432	30
433	30
434	30
435	30
436	30
437	30
438	30
439	30
440	30
441	30
442	30
443	30
444	30
445	30
446	30
447	30
448	30
449	30
450	30
451	30
452	30
453	30
454	30
455	30
456	30
457	30
458	30
459	30
460	30
461	30
462	30
463	30
464	30
465	30
466	30
467	30
468	30
469	30
470	30
471	30
472	30
473	30
474	30
475	30
476	30
477	30
478	30
479	30
480	30
481	30
482	30
483	30
484	30
485	30
486	30
487	30
488	30
489	30
490	30
491	30
492	30
493	30
494	30
495	30
496	30
497	30
498	30
499	30
500	30
501	30
502	30
503	30
504	30
505	30
506	30
507	30
508	30
509	30
510	30
511	30
512	30
513	35
514	35
515	35
516	35
517	35
518	35
519	35
520	35
521	35
522	35
523	35
524	35
525	35
526	35
527	35
528	35
529	35
530	35
531	35
532	35
533	35
534	35
535	35
536	35
537	35
538	35
539	35
540	35
541	35
542	35
543	35
544	35
545	35
546	35
547	35
548	35
549	35
550	35
551	35
552	35
553	35
554	35
555	35
556	35
557	35
558	35
559	35
560	35
561	35
562	35
563	35
564	35
565	35
566	35
567	35
568	35
569	35
570	35
571	35
572	35
573	35
574	35
575	35
576	35
577	35
578	35
579	35
580	35
581	35
582	35
583	35
584	35
585	35
586	35
587	35
588	35
589	35
590	35
591	35
592	35
593	35
594	35
595	35
596	35
597	35
598	35
599	35
600	35
601	35
602	35
603	35
604	35
605	35
606	35
607	35
608	35
609	35
610	35
611	35
612	35
613	35
614	35
615	35
616	35
617	35
618	35
619	35
620	35
621	35
622	35
623	35
624	35
625	35
626	35
627	35
628	35
629	35
630	35
631	35
632	35
633	35
634	35
635	35
636	35
637	35
638	35
639	35
640	35
641	42
642	42
643	42
644	42
645	42
646	42
647	42
648	42
649	42
650	42
651	42
652	42
653	42
654	42
655	42
656	42
657	42
658	42
659	42
660	42
661	42
662	42
663	42
664	42
665	42
666	42
667	42
668	42
669	42
670	42
671	42
672	42
673	42
674	42
675	42
676	42
677	42
678	42
679	42
680	42
681	42
682	42
683	42
684	42
685	42
686	42
687	42
688	42
689	42
690	42
691	42
692	42
693	42
694	42
695	42
696	42
697	42
698	42
699	42
700	42
701	42
702	42
703	42
704	42
705	42
706	42
707	42
708	42
709	42
710	42
711	42
712	42
713	42
714	42
715	42
716	42
717	42
718	42
719	42
720	42
721	42
722	42
723	42
724	42
725	42
726	42
727	42
728	42
729	42
730	42
731	42
732	42
733	42
734	42
735	42
736	42
737	42
738	42
739	42
740	42
741	42
742	42
743	42
744	42
745	42
746	42
747	42
748	42
749	42
750	42
751	42
752	42
753	42
754	42
755	42
756	42
757	42
758	42
759	42
760	42
761	42
762	42
763	42
764	42
765	42
766	42
767	42
768	42
769	50
770	50
771	50
772	50
773	50
774	50
775	50
776	50
777	50
778	50
779	50
780	50
781	50
782	50
783	50
784	50
785	50
786	50
787	50
788	50
789	50
790	50
791	50
792	50
793	50
794	50
795	50
796	50
797	50
798	50
799	50
800	50
801	50
802	50
803	50
804	50
805	50
806	50
807	50
808	50
809	50
810	50
811	50
812	50
813	50
814	50
815	50
816	50
817	50
818	50
819	50
820	50
821	50
822	50
823	50
824	50
825	50
826	50
827	50
828	50
829	50
830	50
831	50
832	50
833	50
834	50
835	50
836	50
837	50
838	50
839	50
840	50
841	50
842	50
843	50
844	50
845	50
846	50
847	50
848	50
849	50
850	50
851	50
852	50
853	50
854	50
855	50
856	50
857	50
858	50
859	50
860	50
861	50
862	50
863	50
864	50
865	50
866	50
867	50
868	50
869	50
870	50
871	50
872	50
873	50
874	50
875	50
876	50
877	50
878	50
879	50
880	50
881	50
882	50
883	50
884	50
885	50
886	50
887	50
888	50
889	50
890	50
891	50
892	50
893	50
894	50
895	50
896	50
897	59
898	59
899	59
900	59
901	59
902	59
903	59
904	59
905	59
906	59
907	59
908	59
909	59
910	59
911	59
912	59
913	59
914	59
915	59
916	59
917	59
918	59
919	59
920	59
921	59
922	59
923	59
924	59
925	59
926	59
927	59
928	59
929	59
930	59
931	59
932	59
933	59
934	59
935	59
936	59
937	59
938	59
939	59
940	59
941	59
942	59
943	59
944	59
945	59
946	59
947	59
948	59
949	59
950	59
951	59
952	59
953	59
954	59
955	59
956	59
957	59
958	59
959	59
960	59
961	59
962	59
963	59
964	59
965	59
966	59
967	59
968	59
969	59
970	59
971	59
972	59
973	59
974	59
975	59
976	59
977	59
978	59
979	59
980	59
981	59
982	59
983	59
984	59
985	59
986	59
987	59
988	59
989	59
990	59
991	59
992	59
993	59
994	59
995	59
996	59
997	59
998	59
999	59
1000	59
1001	59
1002	59
1003	59
1004	59
1005	59
1006	59
1007	59
1008	59
1009	59
1010	59
1011	59
1012	59
1013	59
1014	59
1015	59
1016	59
1017	59
1018	59
1019	59
1020	59
1021	59
1022	59
1023	59
1024	59
1025	71
1026	71
1027	71
1028	71
1029	71
1030	71
1031	71
1032	71
1033	71
1034	71
1035	71
1036	71
1037	71
1038	71
1039	71
1040	71
1041	71
1042	71
1043	71
1044	71
1045	71
1046	71
1047	71
1048	71
1049	71
1050	71
1051	71
1052	71
1053	71
1054	71
1055	71
1056	71
1057	71
1058	71
1059	71
1060	71
1061	71
1062	71
1063	71
1064	71
1065	71
1066	71
1067	71
1068	71
1069	71
1070	71
1071	71
1072	71
1073	71
1074	71
1075	71
1076	71
1077	71
1078	71
1079	71
1080	71
1081	71
1082	71
1083	71
1084	71
1085	71
1086	71
1087	71
1088	71
1089	71
1090	71
1091	71
1092	71
1093	71
1094	71
1095	71
1096	71
1097	71
1098	71
1099	71
1100	71
1101	71
1102	71
1103	71
1104	71
1105	71
1106	71
1107	71
1108	71
1109	71
1110	71
1111	71
1112	71
1113	71
1114	71
1115	71
1116	71
1117	71
1118	71
1119	71
1120	71
1121	71
1122	71
1123	71
1124	71
1125	71
1126	71
1127	71
1128	71
1129	71
1130	71
1131	71
1132	71
1133	71
1134	71
1135	71
1136	71
1137	71
1138	71
1139	71
1140	71
1141	71
1142	71
1143	71
1144	71
1145	71
1146	71
1147	71
1148	71
1149	71
1150	71
1151	71
1152	71
VEHICLES_FIXED_COST_SECTION
1	70400
2	70400
3	70400
4	70400
5	70400
6	70400
7	70400
8	70400
9	70400
10	70400
11	70400
12	70400
13	70400
14	70400
15	70400
16	70400
17	70400
18	70400
19	70400
20	70400
21	70400
22	70400
23	70400
24	70400
25	70400
26	70400
27	70400
28	70400
29	70400
30	70400
31	70400
32	70400
33	70400
34	70400
35	70400
36	70400
37	70400
38	70400
39	70400
40	70400
41	70400
42	70400
43	70400
44	70400
45	70400
46	70400
47	70400
48	70400
49	70400
50	70400
51	70400
52	70400
53	70400
54	70400
55	70400
56	70400
57	70400
58	70400
59	70400
60	70400
61	70400
62	70400
63	70400
64	70400
65	70400
66	70400
67	70400
68	70400
69	70400
70	70400
71	70400
72	70400
73	70400
74	70400
75	70400
76	70400
77	70400
78	70400
79	70400
80	70400
81	70400
82	70400
83	70400
84	70400
85	70400
86	70400
87	70400
88	70400
89	70400
90	70400
91	70400
92	70400
93	70400
94	70400
95	70400
96	70400
97	70400
98	70400
99	70400
100	70400
101	70400
102	70400
103	70400
104	70400
105	70400
106	70400
107	70400
108	70400
109	70400
110	70400
111	70400
112	70400
113	70400
114	70400
115	70400
116	70400
117	70400
118	70400
119	70400
120	70400
121	70400
122	70400
123	70400
124	70400
125	70400
126	70400
127	70400
128	70400
129	87000
130	87000
131	87000
132	87000
133	87000
134	87000
135	87000
136	87000
137	87000
138	87000
139	87000
140	87000
141	87000
142	87000
143	87000
144	87000
145	87000
146	87000
147	87000
148	87000
149	87000
150	87000
151	87000
152	87000
153	87000
154	87000
155	87000
156	87000
157	87000
158	87000
159	87000
160	87000
161	87000
162	87000
163	87000
164	87000
165	87000
166	87000
167	87000
168	87000
169	87000
170	87000
171	87000
172	87000
173	87000
174	87000
175	87000
176	87000
177	87000
178	87000
179	87000
180	87000
181	87000
182	87000
183	87000
184	87000
185	87000
186	87000
187	87000
188	87000
189	87000
190	87000
191	87000
192	87000
193	87000
194	87000
195	87000
196	87000
197	87000
198	87000
199	87000
200	87000
201	87000
202	87000
203	87000
204	87000
205	87000
206	87000
207	87000
208	87000
209	87000
210	87000
211	87000
212	87000
213	87000
214	87000
215	87000
216	87000
217	87000
218	87000
219	87000
220	87000
221	87000
222	87000
223	87000
224	87000
225	87000
226	87000
227	87000
228	87000
229	87000
230	87000
231	87000
232	87000
233	87000
234	87000
235	87000
236	87000
237	87000
238	87000
239	87000
240	87000
241	87000
242	87000
243	87000
244	87000
245	87000
246	87000
247	87000
248	87000
249	87000
250	87000
251	87000
252	87000
253	87000
254	87000
255	87000
256	87000
257	107700
258	107700
259	107700
260	107700
261	107700
262	107700
263	107700
264	107700
265	107700
266	107700
267	107700
268	107700
269	107700
270	107700
271	107700
272	107700
273	107700
274	107700
275	107700
276	107700
277	107700
278	107700
279	107700
280	107700
281	107700
282	107700
283	107700
284	107700
285	107700
286	107700
287	107700
288	107700
289	107700
290	107700
291	107700
292	107700
293	107700
294	107700
295	107700
296	107700
297	107700
298	107700
299	107700
300	107700
301	107700
302	107700
303	107700
304	107700
305	107700
306	107700
307	107700
308	107700
309	107700
310	107700
311	107700
312	107700
313	107700
314	107700
315	107700
316	107700
317	107700
318	107700
319	107700
320	107700
321	107700
322	107700
323	107700
324	107700
325	107700
326	107700
327	107700
328	107700
329	107700
330	107700
331	107700
332	107700
333	107700
334	107700
335	107700
336	107700
337	107700
338	107700
339	107700
340	107700
341	107700
342	107700
343	107700
344	107700
345	107700
346	107700
347	107700
348	107700
349	107700
350	107700
351	107700
352	107700
353	107700
354	107700
355	107700
356	107700
357	107700
358	107700
359	107700
360	107700
361	107700
362	107700
363	107700
364	107700
365	107700
366	107700
367	107700
368	107700
369	107700
370	107700
371	107700
372	107700
373	107700
374	107700
375	107700
376	107700
377	107700
378	107700
379	107700
380	107700
381	107700
382	107700
383	107700
384	107700
385	133300
386	133300
387	133300
388	133300
389	133300
390	133300
391	133300
392	133300
393	133300
394	133300
395	133300
396	133300
397	133300
398	133300
399	133300
400	133300
401	133300
402	133300
403	133300
404	133300
405	133300
406	133300
407	133300
408	133300
409	133300
410	133300
411	133300
412	133300
413	133300
414	133300
415	133300
416	133300
417	133300
418	133300
419	133300
420	133300
421	133300
422	133300
423	133300
424	133300
425	133300
426	133300
427	133300
428	133300
429	133300
430	133300
431	133300
432	133300
433	133300
434	133300
435	133300
436	133300
437	133300
438	133300
439	133300
440	133300
441	133300
442	133300
443	133300
444	133300
445	133300
446	133300
447	133300
448	133300
449	133300
450	133300
451	133300
452	133300
453	133300
454	133300
455	133300
456	133300
457	133300
458	133300
459	133300
460	133300
461	133300
462	133300
463	133300
464	133300
465	133300
466	133300
467	133300
468	133300
469	133300
470	133300
471	133300
472	133300
473	133300
474	133300
475	133300
476	133300
477	133300
478	133300
479	133300
480	133300
481	133300
482	133300
483	133300
484	133300
485	133300
486	133300
487	133300
488	133300
489	133300
490	133300
491	133300
492	133300
493	133300
494	133300
495	133300
496	133300
497	133300
498	133300
499	133300
500	133300
501	133300
502	133300
503	133300
504	133300
505	133300
506	133300
507	133300
508	133300
509	133300
510	133300
511	133300
512	133300
513	164900
514	164900
515	164900
516	164900
517	164900
518	164900
519	164900
520	164900
521	164900
522	164900
523	164900
524	164900
525	164900
526	164900
527	164900
528	164900
529	164900
530	164900
531	164900
532	164900
533	164900
534	164900
535	164900
536	164900
537	164900
538	164900
539	164900
540	164900
541	164900
542	164900
543	164900
544	164900
545	164900
546	164900
547	164900
548	164900
549	164900
550	164900
551	164900
552	164900
553	164900
554	164900
555	164900
556	164900
557	164900
558	164900
559	164900
560	164900
561	164900
562	164900
563	164900
564	164900
565	164900
566	164900
567	164900
568	164900
569	164900
570	164900
571	164900
572	164900
573	164900
574	164900
575	164900
576	164900
577	164900
578	164900
579	164900
580	164900
581	164900
582	164900
583	164900
584	164900
585	164900
586	164900
587	164900
588	164900
589	164900
590	164900
591	164900
592	164900
593	164900
594	164900
595	164900
596	164900
597	164900
598	164900
599	164900
600	164900
601	164900
602	164900
603	164900
604	164900
605	164900
606	164900
607	164900
608	164900
609	164900
610	164900
611	164900
612	164900
613	164900
614	164900
615	164900
616	164900
617	164900
618	164900
619	164900
620	164900
621	164900
622	164900
623	164900
624	164900
625	164900
626	164900
627	164900
628	164900
629	164900
630	164900
631	164900
632	164900
633	164900
634	164900
635	164900
636	164900
637	164900
638	164900
639	164900
640	164900
641	203800
642	203800
643	203800
644	203800
645	203800
646	203800
647	203800
648	203800
649	203800
650	203800
651	203800
652	203800
653	203800
654	203800
655	203800
656	203800
657	203800
658	203800
659	203800
660	203800
661	203800
662	203800
663	203800
664	203800
665	203800
666	203800
667	203800
668	203800
669	203800
670	203800
671	203800
672	203800
673	203800
674	203800
675	203800
676	203800
677	203800
678	203800
679	203800
680	203800
681	203800
682	203800
683	203800
684	203800
685	203800
686	203800
687	203800
688	203800
689	203800
690	203800
691	203800
692	203800
693	203800
694	203800
695	203800
696	203800
697	203800
698	203800
699	203800
700	203800
701	203800
702	203800
703	203800
704	203800
705	203800
706	203800
707	203800
708	203800
709	203800
710	203800
711	203800
712	203800
713	203800
714	203800
715	203800
716	203800
717	203800
718	203800
719	203800
720	203800
721	203800
722	203800
723	203800
724	203800
725	203800
726	203800
727	203800
728	203800
729	203800
730	203800
731	203800
732	203800
733	203800
734	203800
735	203800
736	203800
737	203800
738	203800
739	203800
740	203800
741	203800
742	203800
743	203800
744	203800
745	203800
746	203800
747	203800
748	203800
749	203800
750	203800
751	203800
752	203800
753	203800
754	203800
755	203800
756	203800
757	203800
758	203800
759	203800
760	203800
761	203800
762	203800
763	203800
764	203800
765	203800
766	203800
767	203800
768	203800
769	251100
770	251100
771	251100
772	251100
773	251100
774	251100
775	251100
776	251100
777	251100
778	251100
779	251100
780	251100
781	251100
782	251100
783	251100
784	251100
785	251100
786	251100
787	251100
788	251100
789	251100
790	251100
791	251100
792	251100
793	251100
794	251100
795	251100
796	251100
797	251100
798	251100
799	251100
800	251100
801	251100
802	251100
803	251100
804	251100
805	251100
806	251100
807	251100
808	251100
809	251100
810	251100
811	251100
812	251100
813	251100
814	251100
815	251100
816	251100
817	251100
818	251100
819	251100
820	251100
821	251100
822	251100
823	251100
824	251100
825	251100
826	251100
827	251100
828	251100
829	251100
830	251100
831	251100
832	251100
833	251100
834	251100
835	251100
836	251100
837	251100
838	251100
839	251100
840	251100
841	251100
842	251100
843	251100
844	251100
845	251100
846	251100
847	251100
848	251100
849	251100
850	251100
851	251100
852	251100
853	251100
854	251100
855	251100
856	251100
857	251100
858	251100
859	251100
860	251100
861	251100
862	251100
863	251100
864	251100
865	251100
866	251100
867	251100
868	251100
869	251100
870	251100
871	251100
872	251100
873	251100
874	251100
875	251100
876	251100
877	251100
878	251100
879	251100
880	251100
881	251100
882	251100
883	251100
884	251100
885	251100
886	251100
887	251100
888	251100
889	251100
890	251100
891	251100
892	251100
893	251100
894	251100
895	251100
896	251100
897	308300
898	308300
899	308300
900	308300
901	308300
902	308300
903	308300
904	308300
905	308300
906	308300
907	308300
908	308300
909	308300
910	308300
911	308300
912	308300
913	308300
914	308300
915	308300
916	308300
917	308300
918	308300
919	308300
920	308300
921	308300
922	308300
923	308300
924	308300
925	308300
926	308300
927	308300
928	308300
929	308300
930	308300
931	308300
932	308300
933	308300
934	308300
935	308300
936	308300
937	308300
938	308300
939	308300
940	308300
941	308300
942	308300
943	308300
944	308300
945	308300
946	308300
947	308300
948	308300
949	308300
950	308300
951	308300
952	308300
953	308300
954	308300
955	308300
956	308300
957	308300
958	308300
959	308300
960	308300
961	308300
962	308300
963	308300
964	308300
965	308300
966	308300
967	308300
968	308300
969	308300
970	308300
971	308300
972	308300
973	308300
974	308300
975	308300
976	308300
977	308300
978	308300
979	308300
980	308300
981	308300
982	308300
983	308300
984	308300
985	308300
986	308300
987	308300
988	308300
989	308300
990	308300
991	308300
992	308300
993	308300
994	308300
995	308300
996	308300
997	308300
998	308300
999	308300
1000	308300
1001	308300
1002	308300
1003	308300
1004	308300
1005	308300
1006	308300
1007	308300
1008	308300
1009	308300
1010	308300
1011	308300
1012	308300
1013	308300
1014	308300
1015	308300
1016	308300
1017	308300
1018	308300
1019	308300
1020	308300
1021	308300
1022	308300
1023	308300
1024	308300
1025	376900
1026	376900
1027	376900
1028	376900
1029	376900
1030	376900
1031	376900
1032	376900
1033	376900
1034	376900
1035	376900
1036	376900
1037	376900
1038	376900
1039	376900
1040	376900
1041	376900
1042	376900
1043	376900
1044	376900
1045	376900
1046	376900
1047	376900
1048	376900
1049	376900
1050	376900
1051	376900
1052	376900
1053	376900
1054	376900
1055	376900
1056	376900
1057	376900
1058	376900
1059	376900
1060	376900
1061	376900
1062	376900
1063	376900
1064	376900
1065	376900
1066	376900
1067	376900
1068	376900
1069	376900
1070	376900
1071	376900
1072	376900
1073	376900
1074	376900
1075	376900
1076	376900
1077	376900
1078	376900
1079	376900
1080	376900
1081	376900
1082	376900
1083	376900
1084	376900
1085	376900
1086	376900
1087	376900
1088	376900
1089	376900
1090	376900
1091	376900
1092	376900
1093	376900
1094	376900
1095	376900
1096	376900
1097	376900
1098	376900
1099	376900
1100	376900
1101	376900
1102	376900
1103	376900
1104	376900
1105	376900
1106	376900
1107	376900
1108	376900
1109	376900
1110	376900
1111	376900
1112	376900
1113	376900
1114	376900
1115	376900
1116	376900
1117	376900
1118	376900
1119	376900
1120	376900
1121	376900
1122	376900
1123	376900
1124	376900
1125	376900
1126	376900
1127	376900
1128	376900
1129	376900
1130	376900
1131	376900
1132	376900
1133	376900
1134	376900
1135	376900
1136	376900
1137	376900
1138	376900
1139	376900
1140	376900
1141	376900
1142	376900
1143	376900
1144	376900
1145	376900
1146	376900
1147	376900
1148	376900
1149	376900
1150	376900
1151	376900
1152	376900
VEHICLES_UNIT_DISTANCE_COST_SECTION
1	59
2	59
3	59
4	59
5	59
6	59
7	59
8	59
9	59
10	59
11	59
12	59
13	59
14	59
15	59
16	59
17	59
18	59
19	59
20	59
21	59
22	59
23	59
24	59
25	59
26	59
27	59
28	59
29	59
30	59
31	59
32	59
33	59
34	59
35	59
36	59
37	59
38	59
39	59
40	59
41	59
42	59
43	59
44	59
45	59
46	59
47	59
48	59
49	59
50	59
51	59
52	59
53	59
54	59
55	59
56	59
57	59
58	59
59	59
60	59
61	59
62	59
63	59
64	59
65	59
66	59
67	59
68	59
69	59
70	59
71	59
72	59
73	59
74	59
75	59
76	59
77	59
78	59
79	59
80	59
81	59
82	59
83	59
84	59
85	59
86	59
87	59
88	59
89	59
90	59
91	59
92	59
93	59
94	59
95	59
96	59
97	59
98	59
99	59
100	59
101	59
102	59
103	59
104	59
105	59
106	59
107	59
108	59
109	59
110	59
111	59
112	59
113	59
114	59
115	59
116	59
117	59
118	59
119	59
120	59
121	59
122	59
123	59
124	59
125	59
126	59
127	59
128	59
129	67
130	67
131	67
132	67
133	67
134	67
135	67
136	67
137	67
138	67
139	67
140	67
141	67
142	67
143	67
144	67
145	67
146	67
147	67
148	67
149	67
150	67
151	67
152	67
153	67
154	67
155	67
156	67
157	67
158	67
159	67
160	67
161	67
162	67
163	67
164	67
165	67
166	67
167	67
168	67
169	67
170	67
171	67
172	67
173	67
174	67
175	67
176	67
177	67
178	67
179	67
180	67
181	67
182	67
183	67
184	67
185	67
186	67
187	67
188	67
189	67
190	67
191	67
192	67
193	67
194	67
195	67
196	67
197	67
198	67
199	67
200	67
201	67
202	67
203	67
204	67
205	67
206	67
207	67
208	67
209	67
210	67
211	67
212	67
213	67
214	67
215	67
216	67
217	67
218	67
219	67
220	67
221	67
222	67
223	67
224	67
225	67
226	67
227	67
228	67
229	67
230	67
231	67
232	67
233	67
234	67
235	67
236	67
237	67
238	67
239	67
240	67
241	67
242	67
243	67
244	67
245	67
246	67
247	67
248	67
249	67
250	67
251	67
252	67
253	67
254	67
255	67
256	67
257	77
258	77
259	77
260	77
261	77
262	77
263	77
264	77
265	77
266	77
267	77
268	77
269	77
270	77
271	77
272	77
273	77
274	77
275	77
276	77
277	77
278	77
279	77
280	77
281	77
282	77
283	77
284	77
285	77
286	77
287	77
288	77
289	77
290	77
291	77
292	77
293	77
294	77
295	77
296	77
297	77
298	77
299	77
300	77
301	77
302	77
303	77
304	77
305	77
306	77
307	77
308	77
309	77
310	77
311	77
312	77
313	77
314	77
315	77
316	77
317	77
318	77
319	77
320	77
321	77
322	77
323	77
324	77
325	77
326	77
327	77
328	77
329	77
330	77
331	77
332	77
333	77
334	77
335	77
336	77
337	77
338	77
339	77
340	77
341	77
342	77
343	77
344	77
345	77
346	77
347	77
348	77
349	77
350	77
351	77
352	77
353	77
354	77
355	77
356	77
357	77
358	77
359	77
360	77
361	77
362	77
363	77
364	77
365	77
366	77
367	77
368	77
369	77
370	77
371	77
372	77
373	77
374	77
375	77
376	77
377	77
378	77
379	77
380	77
381	77
382	77
383	77
384	77
385	88
386	88
387	88
388	88
389	88
390	88
391	88
392	88
393	88
394	88
395	88
396	88
397	88
398	88
399	88
400	88
401	88
402	88
403	88
404	88
405	88
406	88
407	88
408	88
409	88
410	88
411	88
412	88
413	88
414	88
415	88
416	88
417	88
418	88
419	88
420	88
421	88
422	88
423	88
424	88
425	88
426	88
427	88
428	88
429	88
430	88
431	88
432	88
433	88
434	88
435	88
436	88
437	88
438	88
439	88
440	88
441	88
442	88
443	88
444	88
445	88
446	88
447	88
448	88
449	88
450	88
451	88
452	88
453	88
454	88
455	88
456	88
457	88
458	88
459	88
460	88
461	88
462	88
463	88
464	88
465	88
466	88
467	88
468	88
469	88
470	88
471	88
472	88
473	88
474	88
475	88
476	88
477	88
478	88
479	88
480	88
481	88
482	88
483	88
484	88
485	88
486	88
487	88
488	88
489	88
490	88
491	88
492	88
493	88
494	88
495	88
496	88
497	88
498	88
499	88
500	88
501	88
502	88
503	88
504	88
505	88
506	88
507	88
508	88
509	88
510	88
511	88
512	88
513	100
514	100
515	100
516	100
517	100
518	100
519	100
520	100
521	100
522	100
523	100
524	100
525	100
526	100
527	100
528	100
529	100
530	100
531	100
532	100
533	100
534	100
535	100
536	100
537	100
538	100
539	100
540	100
541	100
542	100
543	100
544	100
545	100
546	100
547	100
548	100
549	100
550	100
551	100
552	100
553	100
554	100
555	100
556	100
557	100
558	100
559	100
560	100
561	100
562	100
563	100
564	100
565	100
566	100
567	100
568	100
569	100
570	100
571	100
572	100
573	100
574	100
575	100
576	100
577	100
578	100
579	100
580	100
581	100
582	100
583	100
584	100
585	100
586	100
587	100
588	100
589	100
590	100
591	100
592	100
593	100
594	100
595	100
596	100
597	100
598	100
599	100
600	100
601	100
602	100
603	100
604	100
605	100
606	100
607	100
608	100
609	100
610	100
611	100
612	100
613	100
614	100
615	100
616	100
617	100
618	100
619	100
620	100
621	100
622	100
623	100
624	100
625	100
626	100
627	100
628	100
629	100
630	100
631	100
632	100
633	100
634	100
635	100
636	100
637	100
638	100
639	100
640	100
641	113
642	113
643	113
644	113
645	113
646	113
647	113
648	113
649	113
650	113
651	113
652	113
653	113
654	113
655	113
656	113
657	113
658	113
659	113
660	113
661	113
662	113
663	113
664	113
665	113
666	113
667	113
668	113
669	113
670	113
671	113
672	113
673	113
674	113
675	113
676	113
677	113
678	113
679	113
680	113
681	113
682	113
683	113
684	113
685	113
686	113
687	113
688	113
689	113
690	113
691	113
692	113
693	113
694	113
695	113
696	113
697	113
698	113
699	113
700	113
701	113
702	113
703	113
704	113
705	113
706	113
707	113
708	113
709	113
710	113
711	113
712	113
713	113
714	113
715	113
716	113
717	113
718	113
719	113
720	113
721	113
722	113
723	113
724	113
725	113
726	113
727	113
728	113
729	113
730	113
731	113
732	113
733	113
734	113
735	113
736	113
737	113
738	113
739	113
740	113
741	113
742	113
743	113
744	113
745	113
746	113
747	113
748	113
749	113
750	113
751	113
752	113
753	113
754	113
755	113
756	113
757	113
758	113
759	113
760	113
761	113
762	113
763	113
764	113
765	113
766	113
767	113
768	113
769	129
770	129
771	129
772	129
773	129
774	129
775	129
776	129
777	129
778	129
779	129
780	129
781	129
782	129
783	129
784	129
785	129
786	129
787	129
788	129
789	129
790	129
791	129
792	129
793	129
794	129
795	129
796	129
797	129
798	129
799	129
800	129
801	129
802	129
803	129
804	129
805	129
806	129
807	129
808	129
809	129
810	129
811	129
812	129
813	129
814	129
815	129
816	129
817	129
818	129
819	129
820	129
821	129
822	129
823	129
824	129
825	129
826	129
827	129
828	129
829	129
830	129
831	129
832	129
833	129
834	129
835	129
836	129
837	129
838	129
839	129
840	129
841	129
842	129
843	129
844	129
845	129
846	129
847	129
848	129
849	129
850	129
851	129
852	129
853	129
854	129
855	129
856	129
857	129
858	129
859	129
860	129
861	129
862	129
863	129
864	129
865	129
866	129
867	129
868	129
869	129
870	129
871	129
872	129
873	129
874	129
875	129
876	129
877	129
878	129
879	129
880	129
881	129
882	129
883	129
884	129
885	129
886	129
887	129
888	129
889	129
890	129
891	129
892	129
893	129
894	129
895	129
896	129
897	146
898	146
899	146
900	146
901	146
902	146
903	146
904	146
905	146
906	146
907	146
908	146
909	146
910	146
911	146
912	146
913	146
914	146
915	146
916	146
917	146
918	146
919	146
920	146
921	146
922	146
923	146
924	146
925	146
926	146
927	146
928	146
929	146
930	146
931	146
932	146
933	146
934	146
935	146
936	146
937	146
938	146
939	146
940	146
941	146
942	146
943	146
944	146
945	146
946	146
947	146
948	146
949	146
950	146
951	146
952	146
953	146
954	146
955	146
956	146
957	146
958	146
959	146
960	146
961	146
962	146
963	146
964	146
965	146
966	146
967	146
968	146
969	146
970	146
971	146
972	146
973	146
974	146
975	146
976	146
977	146
978	146
979	146
980	146
981	146
982	146
983	146
984	146
985	146
986	146
987	146
988	146
989	146
990	146
991	146
992	146
993	146
994	146
995	146
996	146
997	146
998	146
999	146
1000	146
1001	146
1002	146
1003	146
1004	146
1005	146
1006	146
1007	146
1008	146
1009	146
1010	146
1011	146
1012	146
1013	146
1014	146
1015	146
1016	146
1017	146
1018	146
1019	146
1020	146
1021	146
1022	146
1023	146
1024	146
1025	166
1026	166
1027	166
1028	166
1029	166
1030	166
1031	166
1032	166
1033	166
1034	166
1035	166
1036	166
1037	166
1038	166
1039	166
1040	166
1041	166
1042	166
1043	166
1044	166
1045	166
1046	166
1047	166
1048	166
1049	166
1050	166
1051	166
1052	166
1053	166
1054	166
1055	166
1056	166
1057	166
1058	166
1059	166
1060	166
1061	166
1062	166
1063	166
1064	166
1065	166
1066	166
1067	166
1068	166
1069	166
1070	166
1071	166
1072	166
1073	166
1074	166
1075	166
1076	166
1077	166
1078	166
1079	166
1080	166
1081	166
1082	166
1083	166
1084	166
1085	166
1086	166
1087	166
1088	166
1089	166
1090	166
1091	166
1092	166
1093	166
1094	166
1095	166
1096	166
1097	166
1098	166
1099	166
1100	166
1101	166
1102	166
1103	166
1104	166
1105	166
1106	166
1107	166
1108	166
1109	166
1110	166
1111	166
1112	166
1113	166
1114	166
1115	166
1116	166
1117	166
1118	166
1119	166
1120	166
1121	166
1122	166
1123	166
1124	166
1125	166
1126	166
1127	166
1128	166
1129	166
1130	166
1131	166
1132	166
1133	166
1134	166
1135	166
1136	166
1137	166
1138	166
1139	166
1140	166
1141	166
1142	166
1143	166
1144	166
1145	166
1146	166
1147	166
1148	166
1149	166
1150	166
1151	166
1152	166
DEPOT_SECTION
1
EOF
